71
150
105	1
104	6
103	8
102	2
101	3
100	2
99	4
98	1
97	2
96	4
95	3
94	2
93	4
92	3
91	1
90	5
89	2
88	2
87	1
86	3
85	3
84	3
82	3
81	5
80	1
79	3
78	2
77	2
76	1
75	4
74	3
73	5
72	3
71	6
70	3
69	2
68	3
67	1
65	2
64	3
63	1
62	1
61	4
60	3
59	3
58	3
57	4
56	4
55	2
54	7
53	2
51	2
50	3
49	1
48	2
47	2
46	2
45	3
44	2
43	3
42	1
39	2
38	3
37	2
36	3
35	3
34	2
33	4
32	3
31	2
30	4
